c t pmc
c file mc2022_track3_073.cnf
p cnf 160 1272
c p show 1 10 16 32 47 50 52 75 76 84 92 127 129 153 159 0
1 81 33 113 0
-1 81 -33 113 0
1 -81 33 -113 0
-1 -81 -33 -113 0
1 81 35 115 0
-1 81 -35 115 0
1 -81 35 -115 0
-1 -81 -35 -115 0
1 81 22 102 0
-1 81 -22 102 0
1 -81 22 -102 0
-1 -81 -22 -102 0
1 81 6 86 0
-1 81 -6 86 0
1 -81 6 -86 0
-1 -81 -6 -86 0
1 81 6 86 0
-1 81 -6 86 0
1 -81 6 -86 0
-1 -81 -6 -86 0
1 81 13 93 0
-1 81 -13 93 0
1 -81 13 -93 0
-1 -81 -13 -93 0
1 81 21 101 0
-1 81 -21 101 0
1 -81 21 -101 0
-1 -81 -21 -101 0
1 81 31 111 0
-1 81 -31 111 0
1 -81 31 -111 0
-1 -81 -31 -111 0
2 82 21 101 0
-2 82 -21 101 0
2 -82 21 -101 0
-2 -82 -21 -101 0
2 82 34 114 0
-2 82 -34 114 0
2 -82 34 -114 0
-2 -82 -34 -114 0
2 82 71 151 0
-2 82 -71 151 0
2 -82 71 -151 0
-2 -82 -71 -151 0
2 82 14 94 0
-2 82 -14 94 0
2 -82 14 -94 0
-2 -82 -14 -94 0
2 82 72 152 0
-2 82 -72 152 0
2 -82 72 -152 0
-2 -82 -72 -152 0
2 82 26 106 0
-2 82 -26 106 0
2 -82 26 -106 0
-2 -82 -26 -106 0
2 82 50 130 0
-2 82 -50 130 0
2 -82 50 -130 0
-2 -82 -50 -130 0
2 82 44 124 0
-2 82 -44 124 0
2 -82 44 -124 0
-2 -82 -44 -124 0
3 83 62 142 0
-3 83 -62 142 0
3 -83 62 -142 0
-3 -83 -62 -142 0
3 83 8 88 0
-3 83 -8 88 0
3 -83 8 -88 0
-3 -83 -8 -88 0
3 83 29 109 0
-3 83 -29 109 0
3 -83 29 -109 0
-3 -83 -29 -109 0
3 83 68 148 0
-3 83 -68 148 0
3 -83 68 -148 0
-3 -83 -68 -148 0
3 83 78 158 0
-3 83 -78 158 0
3 -83 78 -158 0
-3 -83 -78 -158 0
3 83 32 112 0
-3 83 -32 112 0
3 -83 32 -112 0
-3 -83 -32 -112 0
3 83 33 113 0
-3 83 -33 113 0
3 -83 33 -113 0
-3 -83 -33 -113 0
3 83 22 102 0
-3 83 -22 102 0
3 -83 22 -102 0
-3 -83 -22 -102 0
4 84 24 104 0
-4 84 -24 104 0
4 -84 24 -104 0
-4 -84 -24 -104 0
4 84 54 134 0
-4 84 -54 134 0
4 -84 54 -134 0
-4 -84 -54 -134 0
4 84 53 133 0
-4 84 -53 133 0
4 -84 53 -133 0
-4 -84 -53 -133 0
4 84 8 88 0
-4 84 -8 88 0
4 -84 8 -88 0
-4 -84 -8 -88 0
4 84 45 125 0
-4 84 -45 125 0
4 -84 45 -125 0
-4 -84 -45 -125 0
4 84 10 90 0
-4 84 -10 90 0
4 -84 10 -90 0
-4 -84 -10 -90 0
4 84 13 93 0
-4 84 -13 93 0
4 -84 13 -93 0
-4 -84 -13 -93 0
4 84 37 117 0
-4 84 -37 117 0
4 -84 37 -117 0
-4 -84 -37 -117 0
5 85 15 95 0
-5 85 -15 95 0
5 -85 15 -95 0
-5 -85 -15 -95 0
5 85 75 155 0
-5 85 -75 155 0
5 -85 75 -155 0
-5 -85 -75 -155 0
5 85 76 156 0
-5 85 -76 156 0
5 -85 76 -156 0
-5 -85 -76 -156 0
5 85 27 107 0
-5 85 -27 107 0
5 -85 27 -107 0
-5 -85 -27 -107 0
5 85 70 150 0
-5 85 -70 150 0
5 -85 70 -150 0
-5 -85 -70 -150 0
5 85 80 160 0
-5 85 -80 160 0
5 -85 80 -160 0
-5 -85 -80 -160 0
5 85 7 87 0
-5 85 -7 87 0
5 -85 7 -87 0
-5 -85 -7 -87 0
5 85 59 139 0
-5 85 -59 139 0
5 -85 59 -139 0
-5 -85 -59 -139 0
6 86 60 140 0
-6 86 -60 140 0
6 -86 60 -140 0
-6 -86 -60 -140 0
6 86 48 128 0
-6 86 -48 128 0
6 -86 48 -128 0
-6 -86 -48 -128 0
6 86 61 141 0
-6 86 -61 141 0
6 -86 61 -141 0
-6 -86 -61 -141 0
6 86 28 108 0
-6 86 -28 108 0
6 -86 28 -108 0
-6 -86 -28 -108 0
6 86 79 159 0
-6 86 -79 159 0
6 -86 79 -159 0
-6 -86 -79 -159 0
6 86 58 138 0
-6 86 -58 138 0
6 -86 58 -138 0
-6 -86 -58 -138 0
7 87 45 125 0
-7 87 -45 125 0
7 -87 45 -125 0
-7 -87 -45 -125 0
7 87 52 132 0
-7 87 -52 132 0
7 -87 52 -132 0
-7 -87 -52 -132 0
7 87 67 147 0
-7 87 -67 147 0
7 -87 67 -147 0
-7 -87 -67 -147 0
7 87 43 123 0
-7 87 -43 123 0
7 -87 43 -123 0
-7 -87 -43 -123 0
7 87 79 159 0
-7 87 -79 159 0
7 -87 79 -159 0
-7 -87 -79 -159 0
7 87 48 128 0
-7 87 -48 128 0
7 -87 48 -128 0
-7 -87 -48 -128 0
7 87 43 123 0
-7 87 -43 123 0
7 -87 43 -123 0
-7 -87 -43 -123 0
8 88 33 113 0
-8 88 -33 113 0
8 -88 33 -113 0
-8 -88 -33 -113 0
8 88 17 97 0
-8 88 -17 97 0
8 -88 17 -97 0
-8 -88 -17 -97 0
8 88 17 97 0
-8 88 -17 97 0
8 -88 17 -97 0
-8 -88 -17 -97 0
8 88 15 95 0
-8 88 -15 95 0
8 -88 15 -95 0
-8 -88 -15 -95 0
9 89 47 127 0
-9 89 -47 127 0
9 -89 47 -127 0
-9 -89 -47 -127 0
9 89 31 111 0
-9 89 -31 111 0
9 -89 31 -111 0
-9 -89 -31 -111 0
9 89 15 95 0
-9 89 -15 95 0
9 -89 15 -95 0
-9 -89 -15 -95 0
9 89 71 151 0
-9 89 -71 151 0
9 -89 71 -151 0
-9 -89 -71 -151 0
9 89 42 122 0
-9 89 -42 122 0
9 -89 42 -122 0
-9 -89 -42 -122 0
9 89 11 91 0
-9 89 -11 91 0
9 -89 11 -91 0
-9 -89 -11 -91 0
9 89 54 134 0
-9 89 -54 134 0
9 -89 54 -134 0
-9 -89 -54 -134 0
9 89 56 136 0
-9 89 -56 136 0
9 -89 56 -136 0
-9 -89 -56 -136 0
10 90 45 125 0
-10 90 -45 125 0
10 -90 45 -125 0
-10 -90 -45 -125 0
10 90 75 155 0
-10 90 -75 155 0
10 -90 75 -155 0
-10 -90 -75 -155 0
10 90 79 159 0
-10 90 -79 159 0
10 -90 79 -159 0
-10 -90 -79 -159 0
10 90 75 155 0
-10 90 -75 155 0
10 -90 75 -155 0
-10 -90 -75 -155 0
10 90 72 152 0
-10 90 -72 152 0
10 -90 72 -152 0
-10 -90 -72 -152 0
10 90 70 150 0
-10 90 -70 150 0
10 -90 70 -150 0
-10 -90 -70 -150 0
10 90 52 132 0
-10 90 -52 132 0
10 -90 52 -132 0
-10 -90 -52 -132 0
11 91 58 138 0
-11 91 -58 138 0
11 -91 58 -138 0
-11 -91 -58 -138 0
11 91 26 106 0
-11 91 -26 106 0
11 -91 26 -106 0
-11 -91 -26 -106 0
11 91 38 118 0
-11 91 -38 118 0
11 -91 38 -118 0
-11 -91 -38 -118 0
11 91 59 139 0
-11 91 -59 139 0
11 -91 59 -139 0
-11 -91 -59 -139 0
11 91 19 99 0
-11 91 -19 99 0
11 -91 19 -99 0
-11 -91 -19 -99 0
11 91 36 116 0
-11 91 -36 116 0
11 -91 36 -116 0
-11 -91 -36 -116 0
11 91 37 117 0
-11 91 -37 117 0
11 -91 37 -117 0
-11 -91 -37 -117 0
12 92 15 95 0
-12 92 -15 95 0
12 -92 15 -95 0
-12 -92 -15 -95 0
12 92 68 148 0
-12 92 -68 148 0
12 -92 68 -148 0
-12 -92 -68 -148 0
12 92 44 124 0
-12 92 -44 124 0
12 -92 44 -124 0
-12 -92 -44 -124 0
12 92 72 152 0
-12 92 -72 152 0
12 -92 72 -152 0
-12 -92 -72 -152 0
12 92 31 111 0
-12 92 -31 111 0
12 -92 31 -111 0
-12 -92 -31 -111 0
12 92 23 103 0
-12 92 -23 103 0
12 -92 23 -103 0
-12 -92 -23 -103 0
12 92 42 122 0
-12 92 -42 122 0
12 -92 42 -122 0
-12 -92 -42 -122 0
12 92 80 160 0
-12 92 -80 160 0
12 -92 80 -160 0
-12 -92 -80 -160 0
13 93 26 106 0
-13 93 -26 106 0
13 -93 26 -106 0
-13 -93 -26 -106 0
13 93 47 127 0
-13 93 -47 127 0
13 -93 47 -127 0
-13 -93 -47 -127 0
13 93 22 102 0
-13 93 -22 102 0
13 -93 22 -102 0
-13 -93 -22 -102 0
13 93 34 114 0
-13 93 -34 114 0
13 -93 34 -114 0
-13 -93 -34 -114 0
13 93 74 154 0
-13 93 -74 154 0
13 -93 74 -154 0
-13 -93 -74 -154 0
13 93 46 126 0
-13 93 -46 126 0
13 -93 46 -126 0
-13 -93 -46 -126 0
14 94 66 146 0
-14 94 -66 146 0
14 -94 66 -146 0
-14 -94 -66 -146 0
14 94 67 147 0
-14 94 -67 147 0
14 -94 67 -147 0
-14 -94 -67 -147 0
14 94 70 150 0
-14 94 -70 150 0
14 -94 70 -150 0
-14 -94 -70 -150 0
14 94 20 100 0
-14 94 -20 100 0
14 -94 20 -100 0
-14 -94 -20 -100 0
14 94 39 119 0
-14 94 -39 119 0
14 -94 39 -119 0
-14 -94 -39 -119 0
14 94 69 149 0
-14 94 -69 149 0
14 -94 69 -149 0
-14 -94 -69 -149 0
14 94 79 159 0
-14 94 -79 159 0
14 -94 79 -159 0
-14 -94 -79 -159 0
15 95 53 133 0
-15 95 -53 133 0
15 -95 53 -133 0
-15 -95 -53 -133 0
15 95 56 136 0
-15 95 -56 136 0
15 -95 56 -136 0
-15 -95 -56 -136 0
15 95 58 138 0
-15 95 -58 138 0
15 -95 58 -138 0
-15 -95 -58 -138 0
15 95 22 102 0
-15 95 -22 102 0
15 -95 22 -102 0
-15 -95 -22 -102 0
16 96 40 120 0
-16 96 -40 120 0
16 -96 40 -120 0
-16 -96 -40 -120 0
16 96 72 152 0
-16 96 -72 152 0
16 -96 72 -152 0
-16 -96 -72 -152 0
16 96 38 118 0
-16 96 -38 118 0
16 -96 38 -118 0
-16 -96 -38 -118 0
16 96 25 105 0
-16 96 -25 105 0
16 -96 25 -105 0
-16 -96 -25 -105 0
16 96 23 103 0
-16 96 -23 103 0
16 -96 23 -103 0
-16 -96 -23 -103 0
16 96 18 98 0
-16 96 -18 98 0
16 -96 18 -98 0
-16 -96 -18 -98 0
16 96 64 144 0
-16 96 -64 144 0
16 -96 64 -144 0
-16 -96 -64 -144 0
16 96 79 159 0
-16 96 -79 159 0
16 -96 79 -159 0
-16 -96 -79 -159 0
17 97 63 143 0
-17 97 -63 143 0
17 -97 63 -143 0
-17 -97 -63 -143 0
17 97 26 106 0
-17 97 -26 106 0
17 -97 26 -106 0
-17 -97 -26 -106 0
17 97 19 99 0
-17 97 -19 99 0
17 -97 19 -99 0
-17 -97 -19 -99 0
17 97 76 156 0
-17 97 -76 156 0
17 -97 76 -156 0
-17 -97 -76 -156 0
17 97 46 126 0
-17 97 -46 126 0
17 -97 46 -126 0
-17 -97 -46 -126 0
17 97 49 129 0
-17 97 -49 129 0
17 -97 49 -129 0
-17 -97 -49 -129 0
18 98 31 111 0
-18 98 -31 111 0
18 -98 31 -111 0
-18 -98 -31 -111 0
18 98 56 136 0
-18 98 -56 136 0
18 -98 56 -136 0
-18 -98 -56 -136 0
18 98 36 116 0
-18 98 -36 116 0
18 -98 36 -116 0
-18 -98 -36 -116 0
18 98 23 103 0
-18 98 -23 103 0
18 -98 23 -103 0
-18 -98 -23 -103 0
18 98 27 107 0
-18 98 -27 107 0
18 -98 27 -107 0
-18 -98 -27 -107 0
18 98 21 101 0
-18 98 -21 101 0
18 -98 21 -101 0
-18 -98 -21 -101 0
18 98 28 108 0
-18 98 -28 108 0
18 -98 28 -108 0
-18 -98 -28 -108 0
19 99 62 142 0
-19 99 -62 142 0
19 -99 62 -142 0
-19 -99 -62 -142 0
19 99 63 143 0
-19 99 -63 143 0
19 -99 63 -143 0
-19 -99 -63 -143 0
19 99 20 100 0
-19 99 -20 100 0
19 -99 20 -100 0
-19 -99 -20 -100 0
19 99 26 106 0
-19 99 -26 106 0
19 -99 26 -106 0
-19 -99 -26 -106 0
19 99 33 113 0
-19 99 -33 113 0
19 -99 33 -113 0
-19 -99 -33 -113 0
19 99 70 150 0
-19 99 -70 150 0
19 -99 70 -150 0
-19 -99 -70 -150 0
20 100 62 142 0
-20 100 -62 142 0
20 -100 62 -142 0
-20 -100 -62 -142 0
20 100 39 119 0
-20 100 -39 119 0
20 -100 39 -119 0
-20 -100 -39 -119 0
20 100 61 141 0
-20 100 -61 141 0
20 -100 61 -141 0
-20 -100 -61 -141 0
20 100 39 119 0
-20 100 -39 119 0
20 -100 39 -119 0
-20 -100 -39 -119 0
20 100 51 131 0
-20 100 -51 131 0
20 -100 51 -131 0
-20 -100 -51 -131 0
20 100 77 157 0
-20 100 -77 157 0
20 -100 77 -157 0
-20 -100 -77 -157 0
21 101 38 118 0
-21 101 -38 118 0
21 -101 38 -118 0
-21 -101 -38 -118 0
21 101 61 141 0
-21 101 -61 141 0
21 -101 61 -141 0
-21 -101 -61 -141 0
21 101 57 137 0
-21 101 -57 137 0
21 -101 57 -137 0
-21 -101 -57 -137 0
21 101 67 147 0
-21 101 -67 147 0
21 -101 67 -147 0
-21 -101 -67 -147 0
21 101 28 108 0
-21 101 -28 108 0
21 -101 28 -108 0
-21 -101 -28 -108 0
22 102 25 105 0
-22 102 -25 105 0
22 -102 25 -105 0
-22 -102 -25 -105 0
22 102 49 129 0
-22 102 -49 129 0
22 -102 49 -129 0
-22 -102 -49 -129 0
22 102 28 108 0
-22 102 -28 108 0
22 -102 28 -108 0
-22 -102 -28 -108 0
22 102 32 112 0
-22 102 -32 112 0
22 -102 32 -112 0
-22 -102 -32 -112 0
23 103 48 128 0
-23 103 -48 128 0
23 -103 48 -128 0
-23 -103 -48 -128 0
23 103 36 116 0
-23 103 -36 116 0
23 -103 36 -116 0
-23 -103 -36 -116 0
23 103 72 152 0
-23 103 -72 152 0
23 -103 72 -152 0
-23 -103 -72 -152 0
23 103 32 112 0
-23 103 -32 112 0
23 -103 32 -112 0
-23 -103 -32 -112 0
23 103 47 127 0
-23 103 -47 127 0
23 -103 47 -127 0
-23 -103 -47 -127 0
24 104 76 156 0
-24 104 -76 156 0
24 -104 76 -156 0
-24 -104 -76 -156 0
24 104 41 121 0
-24 104 -41 121 0
24 -104 41 -121 0
-24 -104 -41 -121 0
24 104 41 121 0
-24 104 -41 121 0
24 -104 41 -121 0
-24 -104 -41 -121 0
24 104 49 129 0
-24 104 -49 129 0
24 -104 49 -129 0
-24 -104 -49 -129 0
24 104 38 118 0
-24 104 -38 118 0
24 -104 38 -118 0
-24 -104 -38 -118 0
24 104 65 145 0
-24 104 -65 145 0
24 -104 65 -145 0
-24 -104 -65 -145 0
24 104 38 118 0
-24 104 -38 118 0
24 -104 38 -118 0
-24 -104 -38 -118 0
25 105 39 119 0
-25 105 -39 119 0
25 -105 39 -119 0
-25 -105 -39 -119 0
25 105 75 155 0
-25 105 -75 155 0
25 -105 75 -155 0
-25 -105 -75 -155 0
25 105 55 135 0
-25 105 -55 135 0
25 -105 55 -135 0
-25 -105 -55 -135 0
25 105 53 133 0
-25 105 -53 133 0
25 -105 53 -133 0
-25 -105 -53 -133 0
25 105 69 149 0
-25 105 -69 149 0
25 -105 69 -149 0
-25 -105 -69 -149 0
25 105 68 148 0
-25 105 -68 148 0
25 -105 68 -148 0
-25 -105 -68 -148 0
26 106 48 128 0
-26 106 -48 128 0
26 -106 48 -128 0
-26 -106 -48 -128 0
26 106 60 140 0
-26 106 -60 140 0
26 -106 60 -140 0
-26 -106 -60 -140 0
26 106 65 145 0
-26 106 -65 145 0
26 -106 65 -145 0
-26 -106 -65 -145 0
27 107 80 160 0
-27 107 -80 160 0
27 -107 80 -160 0
-27 -107 -80 -160 0
27 107 29 109 0
-27 107 -29 109 0
27 -107 29 -109 0
-27 -107 -29 -109 0
27 107 53 133 0
-27 107 -53 133 0
27 -107 53 -133 0
-27 -107 -53 -133 0
27 107 56 136 0
-27 107 -56 136 0
27 -107 56 -136 0
-27 -107 -56 -136 0
27 107 64 144 0
-27 107 -64 144 0
27 -107 64 -144 0
-27 -107 -64 -144 0
27 107 55 135 0
-27 107 -55 135 0
27 -107 55 -135 0
-27 -107 -55 -135 0
28 108 72 152 0
-28 108 -72 152 0
28 -108 72 -152 0
-28 -108 -72 -152 0
28 108 38 118 0
-28 108 -38 118 0
28 -108 38 -118 0
-28 -108 -38 -118 0
28 108 30 110 0
-28 108 -30 110 0
28 -108 30 -110 0
-28 -108 -30 -110 0
28 108 61 141 0
-28 108 -61 141 0
28 -108 61 -141 0
-28 -108 -61 -141 0
29 109 73 153 0
-29 109 -73 153 0
29 -109 73 -153 0
-29 -109 -73 -153 0
29 109 62 142 0
-29 109 -62 142 0
29 -109 62 -142 0
-29 -109 -62 -142 0
29 109 57 137 0
-29 109 -57 137 0
29 -109 57 -137 0
-29 -109 -57 -137 0
29 109 55 135 0
-29 109 -55 135 0
29 -109 55 -135 0
-29 -109 -55 -135 0
29 109 74 154 0
-29 109 -74 154 0
29 -109 74 -154 0
-29 -109 -74 -154 0
29 109 50 130 0
-29 109 -50 130 0
29 -109 50 -130 0
-29 -109 -50 -130 0
30 110 73 153 0
-30 110 -73 153 0
30 -110 73 -153 0
-30 -110 -73 -153 0
30 110 65 145 0
-30 110 -65 145 0
30 -110 65 -145 0
-30 -110 -65 -145 0
30 110 76 156 0
-30 110 -76 156 0
30 -110 76 -156 0
-30 -110 -76 -156 0
30 110 32 112 0
-30 110 -32 112 0
30 -110 32 -112 0
-30 -110 -32 -112 0
30 110 63 143 0
-30 110 -63 143 0
30 -110 63 -143 0
-30 -110 -63 -143 0
30 110 69 149 0
-30 110 -69 149 0
30 -110 69 -149 0
-30 -110 -69 -149 0
30 110 60 140 0
-30 110 -60 140 0
30 -110 60 -140 0
-30 -110 -60 -140 0
31 111 67 147 0
-31 111 -67 147 0
31 -111 67 -147 0
-31 -111 -67 -147 0
31 111 60 140 0
-31 111 -60 140 0
31 -111 60 -140 0
-31 -111 -60 -140 0
31 111 76 156 0
-31 111 -76 156 0
31 -111 76 -156 0
-31 -111 -76 -156 0
31 111 40 120 0
-31 111 -40 120 0
31 -111 40 -120 0
-31 -111 -40 -120 0
32 112 50 130 0
-32 112 -50 130 0
32 -112 50 -130 0
-32 -112 -50 -130 0
32 112 48 128 0
-32 112 -48 128 0
32 -112 48 -128 0
-32 -112 -48 -128 0
32 112 44 124 0
-32 112 -44 124 0
32 -112 44 -124 0
-32 -112 -44 -124 0
32 112 35 115 0
-32 112 -35 115 0
32 -112 35 -115 0
-32 -112 -35 -115 0
33 113 53 133 0
-33 113 -53 133 0
33 -113 53 -133 0
-33 -113 -53 -133 0
33 113 51 131 0
-33 113 -51 131 0
33 -113 51 -131 0
-33 -113 -51 -131 0
33 113 35 115 0
-33 113 -35 115 0
33 -113 35 -115 0
-33 -113 -35 -115 0
33 113 58 138 0
-33 113 -58 138 0
33 -113 58 -138 0
-33 -113 -58 -138 0
34 114 41 121 0
-34 114 -41 121 0
34 -114 41 -121 0
-34 -114 -41 -121 0
34 114 63 143 0
-34 114 -63 143 0
34 -114 63 -143 0
-34 -114 -63 -143 0
34 114 73 153 0
-34 114 -73 153 0
34 -114 73 -153 0
-34 -114 -73 -153 0
34 114 65 145 0
-34 114 -65 145 0
34 -114 65 -145 0
-34 -114 -65 -145 0
34 114 36 116 0
-34 114 -36 116 0
34 -114 36 -116 0
-34 -114 -36 -116 0
34 114 69 149 0
-34 114 -69 149 0
34 -114 69 -149 0
-34 -114 -69 -149 0
35 115 37 117 0
-35 115 -37 117 0
35 -115 37 -117 0
-35 -115 -37 -117 0
35 115 65 145 0
-35 115 -65 145 0
35 -115 65 -145 0
-35 -115 -65 -145 0
35 115 55 135 0
-35 115 -55 135 0
35 -115 55 -135 0
-35 -115 -55 -135 0
35 115 48 128 0
-35 115 -48 128 0
35 -115 48 -128 0
-35 -115 -48 -128 0
35 115 45 125 0
-35 115 -45 125 0
35 -115 45 -125 0
-35 -115 -45 -125 0
36 116 55 135 0
-36 116 -55 135 0
36 -116 55 -135 0
-36 -116 -55 -135 0
36 116 53 133 0
-36 116 -53 133 0
36 -116 53 -133 0
-36 -116 -53 -133 0
36 116 66 146 0
-36 116 -66 146 0
36 -116 66 -146 0
-36 -116 -66 -146 0
36 116 55 135 0
-36 116 -55 135 0
36 -116 55 -135 0
-36 -116 -55 -135 0
37 117 47 127 0
-37 117 -47 127 0
37 -117 47 -127 0
-37 -117 -47 -127 0
37 117 46 126 0
-37 117 -46 126 0
37 -117 46 -126 0
-37 -117 -46 -126 0
37 117 80 160 0
-37 117 -80 160 0
37 -117 80 -160 0
-37 -117 -80 -160 0
37 117 68 148 0
-37 117 -68 148 0
37 -117 68 -148 0
-37 -117 -68 -148 0
37 117 59 139 0
-37 117 -59 139 0
37 -117 59 -139 0
-37 -117 -59 -139 0
38 118 56 136 0
-38 118 -56 136 0
38 -118 56 -136 0
-38 -118 -56 -136 0
38 118 64 144 0
-38 118 -64 144 0
38 -118 64 -144 0
-38 -118 -64 -144 0
39 119 77 157 0
-39 119 -77 157 0
39 -119 77 -157 0
-39 -119 -77 -157 0
39 119 52 132 0
-39 119 -52 132 0
39 -119 52 -132 0
-39 -119 -52 -132 0
39 119 46 126 0
-39 119 -46 126 0
39 -119 46 -126 0
-39 -119 -46 -126 0
39 119 66 146 0
-39 119 -66 146 0
39 -119 66 -146 0
-39 -119 -66 -146 0
40 120 54 134 0
-40 120 -54 134 0
40 -120 54 -134 0
-40 -120 -54 -134 0
40 120 78 158 0
-40 120 -78 158 0
40 -120 78 -158 0
-40 -120 -78 -158 0
40 120 74 154 0
-40 120 -74 154 0
40 -120 74 -154 0
-40 -120 -74 -154 0
40 120 44 124 0
-40 120 -44 124 0
40 -120 44 -124 0
-40 -120 -44 -124 0
40 120 80 160 0
-40 120 -80 160 0
40 -120 80 -160 0
-40 -120 -80 -160 0
40 120 44 124 0
-40 120 -44 124 0
40 -120 44 -124 0
-40 -120 -44 -124 0
41 121 46 126 0
-41 121 -46 126 0
41 -121 46 -126 0
-41 -121 -46 -126 0
41 121 42 122 0
-41 121 -42 122 0
41 -121 42 -122 0
-41 -121 -42 -122 0
41 121 70 150 0
-41 121 -70 150 0
41 -121 70 -150 0
-41 -121 -70 -150 0
41 121 49 129 0
-41 121 -49 129 0
41 -121 49 -129 0
-41 -121 -49 -129 0
41 121 57 137 0
-41 121 -57 137 0
41 -121 57 -137 0
-41 -121 -57 -137 0
42 122 78 158 0
-42 122 -78 158 0
42 -122 78 -158 0
-42 -122 -78 -158 0
42 122 73 153 0
-42 122 -73 153 0
42 -122 73 -153 0
-42 -122 -73 -153 0
42 122 53 133 0
-42 122 -53 133 0
42 -122 53 -133 0
-42 -122 -53 -133 0
42 122 61 141 0
-42 122 -61 141 0
42 -122 61 -141 0
-42 -122 -61 -141 0
42 122 51 131 0
-42 122 -51 131 0
42 -122 51 -131 0
-42 -122 -51 -131 0
43 123 72 152 0
-43 123 -72 152 0
43 -123 72 -152 0
-43 -123 -72 -152 0
43 123 71 151 0
-43 123 -71 151 0
43 -123 71 -151 0
-43 -123 -71 -151 0
43 123 53 133 0
-43 123 -53 133 0
43 -123 53 -133 0
-43 -123 -53 -133 0
43 123 44 124 0
-43 123 -44 124 0
43 -123 44 -124 0
-43 -123 -44 -124 0
43 123 55 135 0
-43 123 -55 135 0
43 -123 55 -135 0
-43 -123 -55 -135 0
43 123 52 132 0
-43 123 -52 132 0
43 -123 52 -132 0
-43 -123 -52 -132 0
44 124 59 139 0
-44 124 -59 139 0
44 -124 59 -139 0
-44 -124 -59 -139 0
44 124 77 157 0
-44 124 -77 157 0
44 -124 77 -157 0
-44 -124 -77 -157 0
45 125 74 154 0
-45 125 -74 154 0
45 -125 74 -154 0
-45 -125 -74 -154 0
45 125 61 141 0
-45 125 -61 141 0
45 -125 61 -141 0
-45 -125 -61 -141 0
45 125 58 138 0
-45 125 -58 138 0
45 -125 58 -138 0
-45 -125 -58 -138 0
45 125 78 158 0
-45 125 -78 158 0
45 -125 78 -158 0
-45 -125 -78 -158 0
46 126 73 153 0
-46 126 -73 153 0
46 -126 73 -153 0
-46 -126 -73 -153 0
46 126 71 151 0
-46 126 -71 151 0
46 -126 71 -151 0
-46 -126 -71 -151 0
46 126 52 132 0
-46 126 -52 132 0
46 -126 52 -132 0
-46 -126 -52 -132 0
47 127 57 137 0
-47 127 -57 137 0
47 -127 57 -137 0
-47 -127 -57 -137 0
47 127 75 155 0
-47 127 -75 155 0
47 -127 75 -155 0
-47 -127 -75 -155 0
47 127 59 139 0
-47 127 -59 139 0
47 -127 59 -139 0
-47 -127 -59 -139 0
47 127 50 130 0
-47 127 -50 130 0
47 -127 50 -130 0
-47 -127 -50 -130 0
48 128 77 157 0
-48 128 -77 157 0
48 -128 77 -157 0
-48 -128 -77 -157 0
48 128 75 155 0
-48 128 -75 155 0
48 -128 75 -155 0
-48 -128 -75 -155 0
49 129 78 158 0
-49 129 -78 158 0
49 -129 78 -158 0
-49 -129 -78 -158 0
49 129 64 144 0
-49 129 -64 144 0
49 -129 64 -144 0
-49 -129 -64 -144 0
49 129 78 158 0
-49 129 -78 158 0
49 -129 78 -158 0
-49 -129 -78 -158 0
49 129 80 160 0
-49 129 -80 160 0
49 -129 80 -160 0
-49 -129 -80 -160 0
50 130 59 139 0
-50 130 -59 139 0
50 -130 59 -139 0
-50 -130 -59 -139 0
50 130 62 142 0
-50 130 -62 142 0
50 -130 62 -142 0
-50 -130 -62 -142 0
50 130 69 149 0
-50 130 -69 149 0
50 -130 69 -149 0
-50 -130 -69 -149 0
50 130 62 142 0
-50 130 -62 142 0
50 -130 62 -142 0
-50 -130 -62 -142 0
51 131 73 153 0
-51 131 -73 153 0
51 -131 73 -153 0
-51 -131 -73 -153 0
51 131 75 155 0
-51 131 -75 155 0
51 -131 75 -155 0
-51 -131 -75 -155 0
51 131 70 150 0
-51 131 -70 150 0
51 -131 70 -150 0
-51 -131 -70 -150 0
51 131 57 137 0
-51 131 -57 137 0
51 -131 57 -137 0
-51 -131 -57 -137 0
51 131 59 139 0
-51 131 -59 139 0
51 -131 59 -139 0
-51 -131 -59 -139 0
52 132 66 146 0
-52 132 -66 146 0
52 -132 66 -146 0
-52 -132 -66 -146 0
52 132 78 158 0
-52 132 -78 158 0
52 -132 78 -158 0
-52 -132 -78 -158 0
52 132 72 152 0
-52 132 -72 152 0
52 -132 72 -152 0
-52 -132 -72 -152 0
54 134 56 136 0
-54 134 -56 136 0
54 -134 56 -136 0
-54 -134 -56 -136 0
54 134 63 143 0
-54 134 -63 143 0
54 -134 63 -143 0
-54 -134 -63 -143 0
54 134 77 157 0
-54 134 -77 157 0
54 -134 77 -157 0
-54 -134 -77 -157 0
54 134 78 158 0
-54 134 -78 158 0
54 -134 78 -158 0
-54 -134 -78 -158 0
54 134 65 145 0
-54 134 -65 145 0
54 -134 65 -145 0
-54 -134 -65 -145 0
55 135 56 136 0
-55 135 -56 136 0
55 -135 56 -136 0
-55 -135 -56 -136 0
56 136 58 138 0
-56 136 -58 138 0
56 -136 58 -138 0
-56 -136 -58 -138 0
57 137 77 157 0
-57 137 -77 157 0
57 -137 77 -157 0
-57 -137 -77 -157 0
57 137 64 144 0
-57 137 -64 144 0
57 -137 64 -144 0
-57 -137 -64 -144 0
57 137 77 157 0
-57 137 -77 157 0
57 -137 77 -157 0
-57 -137 -77 -157 0
58 138 70 150 0
-58 138 -70 150 0
58 -138 70 -150 0
-58 -138 -70 -150 0
58 138 61 141 0
-58 138 -61 141 0
58 -138 61 -141 0
-58 -138 -61 -141 0
59 139 76 156 0
-59 139 -76 156 0
59 -139 76 -156 0
-59 -139 -76 -156 0
60 140 67 147 0
-60 140 -67 147 0
60 -140 67 -147 0
-60 -140 -67 -147 0
60 140 71 151 0
-60 140 -71 151 0
60 -140 71 -151 0
-60 -140 -71 -151 0
60 140 66 146 0
-60 140 -66 146 0
60 -140 66 -146 0
-60 -140 -66 -146 0
60 140 73 153 0
-60 140 -73 153 0
60 -140 73 -153 0
-60 -140 -73 -153 0
61 141 63 143 0
-61 141 -63 143 0
61 -141 63 -143 0
-61 -141 -63 -143 0
62 142 77 157 0
-62 142 -77 157 0
62 -142 77 -157 0
-62 -142 -77 -157 0
62 142 68 148 0
-62 142 -68 148 0
62 -142 68 -148 0
-62 -142 -68 -148 0
63 143 79 159 0
-63 143 -79 159 0
63 -143 79 -159 0
-63 -143 -79 -159 0
63 143 64 144 0
-63 143 -64 144 0
63 -143 64 -144 0
-63 -143 -64 -144 0
64 144 71 151 0
-64 144 -71 151 0
64 -144 71 -151 0
-64 -144 -71 -151 0
64 144 65 145 0
-64 144 -65 145 0
64 -144 65 -145 0
-64 -144 -65 -145 0
65 145 76 156 0
-65 145 -76 156 0
65 -145 76 -156 0
-65 -145 -76 -156 0
66 146 73 153 0
-66 146 -73 153 0
66 -146 73 -153 0
-66 -146 -73 -153 0
66 146 80 160 0
-66 146 -80 160 0
66 -146 80 -160 0
-66 -146 -80 -160 0
66 146 70 150 0
-66 146 -70 150 0
66 -146 70 -150 0
-66 -146 -70 -150 0
67 147 71 151 0
-67 147 -71 151 0
67 -147 71 -151 0
-67 -147 -71 -151 0
68 148 69 149 0
-68 148 -69 149 0
68 -148 69 -149 0
-68 -148 -69 -149 0
68 148 80 160 0
-68 148 -80 160 0
68 -148 80 -160 0
-68 -148 -80 -160 0
68 148 74 154 0
-68 148 -74 154 0
68 -148 74 -154 0
-68 -148 -74 -154 0
69 149 74 154 0
-69 149 -74 154 0
69 -149 74 -154 0
-69 -149 -74 -154 0
69 149 74 154 0
-69 149 -74 154 0
69 -149 74 -154 0
-69 -149 -74 -154 0
71 151 76 156 0
-71 151 -76 156 0
71 -151 76 -156 0
-71 -151 -76 -156 0
74 154 79 159 0
-74 154 -79 159 0
74 -154 79 -159 0
-74 -154 -79 -159 0
75 155 79 159 0
-75 155 -79 159 0
75 -155 79 -159 0
-75 -155 -79 -159 0
